20
1 0 7
2 0 2
2 1 1
3 0 4
3 1 7
3 2 2
4 0 6
4 1 7
4 2 1
4 3 5
5 0 2
5 1 4
5 2 1
5 3 1
5 4 1
6 0 3
6 1 3
6 2 4
6 3 7
6 4 4
6 5 4
7 0 1
7 1 6
7 2 2
7 3 2
7 4 4
7 5 7
7 6 5
8 0 1
8 1 7
8 2 1
8 3 3
8 4 3
8 5 2
8 6 2
8 7 5
9 0 3
9 1 7
9 2 2
9 3 4
9 4 4
9 5 2
9 6 5
9 7 4
9 8 5
10 0 7
10 1 5
10 2 6
10 3 5
10 4 1
10 5 1
10 6 3
10 7 2
10 8 2
10 9 3
11 0 3
11 1 5
11 2 5
11 3 4
11 4 1
11 5 7
11 6 7
11 7 4
11 8 5
11 9 5
11 10 6
12 0 3
12 1 2
12 2 3
12 3 6
12 4 7
12 5 1
12 6 5
12 7 4
12 8 5
12 9 4
12 10 7
12 11 3
13 0 5
13 1 1
13 2 4
13 3 2
13 4 2
13 5 3
13 6 2
13 7 1
13 8 2
13 9 3
13 10 3
13 11 3
13 12 6
14 0 5
14 1 5
14 2 2
14 3 1
14 4 1
14 5 6
14 6 2
14 7 5
14 8 1
14 9 3
14 10 1
14 11 5
14 12 3
14 13 3
15 0 3
15 1 3
15 2 2
15 3 6
15 4 1
15 5 5
15 6 1
15 7 1
15 8 4
15 9 2
15 10 2
15 11 1
15 12 4
15 13 1
15 14 4
16 0 3
16 1 7
16 2 6
16 3 5
16 4 4
16 5 2
16 6 7
16 7 7
16 8 1
16 9 6
16 10 1
16 11 4
16 12 7
16 13 3
16 14 6
16 15 1
17 0 2
17 1 3
17 2 2
17 3 2
17 4 5
17 5 5
17 6 7
17 7 1
17 8 7
17 9 1
17 10 4
17 11 2
17 12 5
17 13 5
17 14 6
17 15 4
17 16 3
18 0 2
18 1 4
18 2 5
18 3 5
18 4 3
18 5 7
18 6 3
18 7 2
18 8 3
18 9 2
18 10 6
18 11 1
18 12 3
18 13 5
18 14 5
18 15 1
18 16 1
18 17 4
19 0 3
19 1 4
19 2 1
19 3 2
19 4 7
19 5 3
19 6 3
19 7 3
19 8 5
19 9 1
19 10 4
19 11 6
19 12 6
19 13 6
19 14 5
19 15 2
19 16 7
19 17 7
19 18 5
